
Gurobi 11.0.2 (win64) logging started Mon Aug 19 17:40:45 2024

Set parameter LogFile to value "D:\Documenti\Scuola\Laurea magistrale unibs\laurea-unibs-mkfsp\output\2024-08-19T13_57_45.433552\logs\instance11_bucket3.log"
Set parameter TimeLimit to value 400
Set parameter MIPGap to value 0
Gurobi Optimizer version 11.0.2 build v11.0.2rc0 (win64 - Windows 10.0 (19045.2))

CPU model: Intel(R) Core(TM) i5-4670 CPU @ 3.40GHz, instruction set [SSE2|AVX|AVX2]
Thread count: 4 physical cores, 4 logical processors, using up to 4 threads

Optimize a model with 3607 rows, 15410 columns and 429505 nonzeros
Model fingerprint: 0xdd27edde
Variable types: 0 continuous, 15410 integer (15230 binary)
Coefficient statistics:
  Matrix range     [1e+00, 8e+03]
  Objective range  [6e+02, 8e+03]
  Bounds range     [1e+00, 1e+00]
  RHS range        [1e+00, 8e+05]
Found heuristic solution: objective 815418.00000
Presolve time: 0.93s
Presolved: 3607 rows, 15410 columns, 429505 nonzeros
Variable types: 0 continuous, 15410 integer (15230 binary)
Found heuristic solution: objective 902413.00000
Deterministic concurrent LP optimizer: primal and dual simplex
Showing primal log only...

Concurrent spin time: 0.00s

Solved with dual simplex

Root relaxation: objective 1.048181e+06, 1453 iterations, 0.26 seconds (0.26 work units)

    Nodes    |    Current Node    |     Objective Bounds      |     Work
 Expl Unexpl |  Obj  Depth IntInf | Incumbent    BestBd   Gap | It/Node Time

H    0     0                    1048181.0000 1048181.00  0.00%     -    1s
     0     0 1048181.00    0  965 1048181.00 1048181.00  0.00%     -    1s

Explored 1 nodes (1453 simplex iterations) in 1.29 seconds (1.06 work units)
Thread count was 4 (of 4 available processors)

Solution count 3: 1.04818e+06 902413 815418 

Optimal solution found (tolerance 0.00e+00)
Best objective 1.048181000000e+06, best bound 1.048181000000e+06, gap 0.0000%
